(set-logic QF_S)
(declare-fun _var_0xINPUT_322936_() String)
(declare-fun __woorpje_diseq_pref0_() String)
(declare-fun __woorpje_diseq_suf_l0_() String)
(declare-fun __woorpje_diseq_suf_r0_() String)
(assert (=(str.++  "VZCCTTfYY8" "")(str.++ _var_0xINPUT_322936_  "")) )
(check-sat)
